set VV := 0 1 2 ;
set VS := 0 1 2 3 4 5 6 7 8 9 ;
param cv := 
0 21
1 21
2 21
;
param cs := 
0 24
1 35
2 37
3 23
4 21
5 23
6 20
7 35
8 27
9 36
;
param bv:	 0 1 2 := 
		0 0 0 18 
		1 0 0 13 
		2 0 0 0 
;
param bs:	 0 1 2 3 4 5 6 7 8 9 := 
		0 0 0 0 0 0 24 0 0 0 0 
		1 0 0 0 21 0 0 24 0 27 27 
		2 0 0 0 32 37 24 20 0 0 0 
		3 0 21 32 0 0 0 0 0 0 26 
		4 0 0 37 0 0 0 0 0 28 21 
		5 24 0 24 0 0 0 0 0 0 0 
		6 0 24 20 0 0 0 0 0 0 0 
		7 0 0 0 0 0 0 0 0 20 0 
		8 0 27 0 0 28 0 0 20 0 0 
		9 0 27 0 26 21 0 0 0 0 0 
;
